SCIP version 9.2.1 [precision: 8 byte] [memory: block] [mode: optimized] [LP solver: Soplex 7.1.3] [GitHash: 0d2d3c7c2d]
Copyright (c) 2002-2025 Zuse Institute Berlin (ZIB)

External libraries: 
  Soplex 7.1.3         Linear Programming Solver developed at Zuse Institute Berlin (soplex.zib.de) [GitHash: 60fd96f2]
  CppAD 20180000.0     Algorithmic Differentiation of C++ algorithms developed by B. Bell (github.com/coin-or/CppAD)
  ZLIB 1.2.11          General purpose compression library by J. Gailly and M. Adler (zlib.net)
  TinyCThread 1.2      small portable implementation of the C11 threads API (tinycthread.github.io)
  GMP 6.2.1            GNU Multiple Precision Arithmetic Library developed by T. Granlund (gmplib.org)
  ZIMPL 3.6.2          Zuse Institute Mathematical Programming Language developed by T. Koch (zimpl.zib.de)
  AMPL/MP 690e9e7      AMPL .nl file reader library (github.com/ampl/mp)
  PaPILO 2.4.1         parallel presolve for integer and linear optimization (github.com/scipopt/papilo) (built with TBB) [GitHash: 11974394]
  Nauty 2.8.8          Computing Graph Automorphism Groups by Brendan D. McKay (users.cecs.anu.edu.au/~bdm/nauty)
  sassy 1.1            Symmetry preprocessor by Markus Anders (github.com/markusa4/sassy)
  Ipopt 3.14.17        Interior Point Optimizer developed by A. Waechter et.al. (github.com/coin-or/Ipopt)

reading user parameter file </home/admsys/SCIP/SCIPOptSuite-9.2.1-Linux/only_time.set>

read problem </home/admsys/SCIP/SCIPOptSuite-9.2.1-Linux/inputs/new_tr/order_dag/dag340_reverse_tiers_input.lp>
============

original problem has 3241 variables (3200 bin, 41 int, 0 impl, 0 cont) and 8351 constraints

solve problem
=============

presolving:
(round 1, fast)       2022 del vars, 4481 del conss, 0 add conss, 967 chg bounds, 413 chg sides, 826 chg coeffs, 0 upgd conss, 0 impls, 1330 clqs
(round 2, fast)       2022 del vars, 4633 del conss, 0 add conss, 967 chg bounds, 415 chg sides, 828 chg coeffs, 0 upgd conss, 0 impls, 1330 clqs
   (0.1s) running MILP presolver
   (0.1s) MILP presolver (3 rounds): 134 aggregations, 0 fixings, 0 bound changes
(round 3, medium)     2156 del vars, 4633 del conss, 0 add conss, 968 chg bounds, 415 chg sides, 828 chg coeffs, 0 upgd conss, 0 impls, 1062 clqs
(round 4, fast)       2156 del vars, 5009 del conss, 0 add conss, 968 chg bounds, 415 chg sides, 828 chg coeffs, 0 upgd conss, 0 impls, 1062 clqs
(round 5, exhaustive) 2156 del vars, 5020 del conss, 0 add conss, 968 chg bounds, 415 chg sides, 828 chg coeffs, 0 upgd conss, 0 impls, 1062 clqs
(round 6, exhaustive) 2156 del vars, 5020 del conss, 0 add conss, 968 chg bounds, 415 chg sides, 828 chg coeffs, 2438 upgd conss, 0 impls, 1062 clqs
(round 7, exhaustive) 2156 del vars, 6286 del conss, 418 add conss, 968 chg bounds, 415 chg sides, 828 chg coeffs, 2438 upgd conss, 0 impls, 1062 clqs
   (0.5s) probing: 1000/1045 (95.7%) - 0 fixings, 0 aggregations, 13110 implications, 0 bound changes
   (0.5s) probing: 1001/1045 (95.8%) - 0 fixings, 0 aggregations, 13148 implications, 0 bound changes
   (0.5s) probing aborted: 1000/1000 successive useless probings
   (0.5s) symmetry computation started: requiring (bin +, int +, cont +), (fixed: bin -, int -, cont -)
   (0.5s) no symmetry present (symcode time: 0.00)
presolving (8 rounds: 8 fast, 5 medium, 4 exhaustive):
 2156 deleted vars, 6286 deleted constraints, 418 added constraints, 968 tightened bounds, 0 added holes, 415 changed sides, 828 changed coefficients
 8064 implications, 6400 cliques
presolved problem has 1085 variables (1045 bin, 40 int, 0 impl, 0 cont) and 2483 constraints
    258 constraints of type <varbound>
    214 constraints of type <setppc>
    418 constraints of type <and>
    893 constraints of type <linear>
    700 constraints of type <logicor>
transformed objective value is always integral (scale: 1)
Presolving Time: 0.47

 time | node  | left  |LP iter|LP it/n|mem/heur|mdpt |vars |cons |rows |cuts |sepa|confs|strbr|  dualbound   | primalbound  |  gap   | compl. 
p 0.5s|     1 |     0 |     1 |     - |  clique|   0 |1085 |2483 |2901 |   0 |  0 |   0 |   0 | 7.864320e+05 | 1.671168e+06 | 112.50%| unknown
  1.7s|     1 |     0 |  7959 |     - |    32M |   0 |1085 |2504 |2901 |   0 |  0 |  21 |   0 | 9.189027e+05 | 1.671168e+06 |  81.87%| unknown
  4.0s|     1 |     0 | 18308 |     - |    32M |   0 |1085 |2522 |2901 |   0 |  0 |  39 |   0 | 9.189030e+05 | 1.671168e+06 |  81.87%| unknown
* 6.3s|     1 |     0 | 18308 |     - |    LP  |   0 |1085 |2523 |2901 |   0 |  0 |  40 |   0 | 9.189030e+05 | 1.441792e+06 |  56.90%| unknown
 11.5s|     1 |     0 | 40523 |     - |    33M |   0 |1085 |2698 |2988 |  88 |  1 |  40 |   0 | 9.269539e+05 | 1.441792e+06 |  55.54%| unknown
 11.5s|     1 |     0 | 40525 |     - |    33M |   0 |1085 |2698 |2987 |  88 |  1 |  40 |   0 | 9.269540e+05 | 1.441792e+06 |  55.54%| unknown
 11.5s|     1 |     0 | 40526 |     - |    33M |   0 |1085 |2699 |2987 |  88 |  1 |  41 |   0 | 9.269540e+05 | 1.441792e+06 |  55.54%| unknown
 18.5s|     1 |     0 | 64032 |     - |    34M |   0 |1085 |2699 |3073 | 174 |  2 |  41 |   0 | 9.283437e+05 | 1.441792e+06 |  55.31%| unknown
 18.5s|     1 |     0 | 64036 |     - |    34M |   0 |1085 |2699 |3073 | 174 |  2 |  41 |   0 | 9.283440e+05 | 1.441792e+06 |  55.31%| unknown
 25.6s|     1 |     0 | 91158 |     - |    36M |   0 |1085 |2699 |3146 | 247 |  3 |  41 |   0 | 9.322074e+05 | 1.441792e+06 |  54.66%| unknown
 25.6s|     1 |     0 | 91169 |     - |    37M |   0 |1085 |2699 |3143 | 247 |  3 |  41 |   0 | 9.322080e+05 | 1.441792e+06 |  54.66%| unknown
 37.4s|     1 |     0 |131670 |     - |    37M |   0 |1085 |2699 |3223 | 327 |  4 |  41 |   0 | 9.323265e+05 | 1.441792e+06 |  54.64%| unknown
 37.4s|     1 |     0 |131675 |     - |    37M |   0 |1085 |2699 |3219 | 327 |  4 |  41 |   0 | 9.323270e+05 | 1.441792e+06 |  54.64%| unknown
 45.2s|     1 |     0 |160683 |     - |    39M |   0 |1085 |2699 |3287 | 395 |  5 |  41 |   0 | 9.570789e+05 | 1.441792e+06 |  50.65%| unknown
 45.3s|     1 |     0 |160684 |     - |    39M |   0 |1085 |2700 |3275 | 395 |  5 |  42 |   0 | 9.570790e+05 | 1.441792e+06 |  50.65%| unknown
 time | node  | left  |LP iter|LP it/n|mem/heur|mdpt |vars |cons |rows |cuts |sepa|confs|strbr|  dualbound   | primalbound  |  gap   | compl. 
 59.7s|     1 |     0 |206058 |     - |    39M |   0 |1085 |2700 |3351 | 471 |  6 |  42 |   0 | 9.575578e+05 | 1.441792e+06 |  50.57%| unknown
 59.7s|     1 |     0 |206059 |     - |    39M |   0 |1085 |2700 |3318 | 471 |  6 |  42 |   0 | 9.575580e+05 | 1.441792e+06 |  50.57%| unknown
 81.7s|     1 |     0 |281947 |     - |    40M |   0 |1085 |2700 |3379 | 532 |  7 |  42 |   0 | 9.585897e+05 | 1.441792e+06 |  50.41%| unknown
 81.7s|     1 |     0 |281948 |     - |    40M |   0 |1085 |2700 |3378 | 532 |  7 |  42 |   0 | 9.585900e+05 | 1.441792e+06 |  50.41%| unknown
 95.7s|     1 |     0 |327307 |     - |    43M |   0 |1085 |2700 |3419 | 573 |  8 |  42 |   0 | 9.585946e+05 | 1.441792e+06 |  50.41%| unknown
 95.7s|     1 |     0 |327310 |     - |    43M |   0 |1085 |2700 |3417 | 573 |  8 |  42 |   0 | 9.585950e+05 | 1.441792e+06 |  50.41%| unknown
  107s|     1 |     0 |363915 |     - |    45M |   0 |1085 |2700 |3458 | 614 |  9 |  42 |   0 | 9.587500e+05 | 1.441792e+06 |  50.38%| unknown
  107s|     1 |     0 |363931 |     - |    45M |   0 |1085 |2702 |3283 | 614 |  9 |  44 |   0 | 9.587510e+05 | 1.441792e+06 |  50.38%| unknown
  129s|     1 |     0 |431166 |     - |    45M |   0 |1085 |2702 |3326 | 657 | 10 |  44 |   0 | 9.587590e+05 | 1.441792e+06 |  50.38%| unknown
  129s|     1 |     0 |431167 |     - |    45M |   0 |1085 |2703 |3325 | 657 | 10 |  45 |   0 | 9.587590e+05 | 1.441792e+06 |  50.38%| unknown
  130s|     1 |     0 |437257 |     - |    46M |   0 |1085 |2703 |3362 | 694 | 11 |  45 |   0 | 9.687871e+05 | 1.441792e+06 |  48.82%| unknown
  130s|     1 |     0 |437258 |     - |    46M |   0 |1085 |2703 |3359 | 694 | 11 |  45 |   0 | 9.687880e+05 | 1.441792e+06 |  48.82%| unknown
  131s|     1 |     0 |442330 |     - |    46M |   0 |1085 |2703 |3300 | 753 | 12 |  45 |   0 | 9.760499e+05 | 1.441792e+06 |  47.72%| unknown
  131s|     1 |     0 |442331 |     - |    46M |   0 |1085 |2703 |3299 | 753 | 12 |  45 |   0 | 9.760500e+05 | 1.441792e+06 |  47.72%| unknown
  132s|     1 |     0 |447284 |     - |    47M |   0 |1085 |2703 |3361 | 815 | 13 |  45 |   0 | 9.816423e+05 | 1.441792e+06 |  46.88%| unknown
 time | node  | left  |LP iter|LP it/n|mem/heur|mdpt |vars |cons |rows |cuts |sepa|confs|strbr|  dualbound   | primalbound  |  gap   | compl. 
  132s|     1 |     0 |447285 |     - |    47M |   0 |1085 |2703 |3361 | 815 | 13 |  45 |   0 | 9.816430e+05 | 1.441792e+06 |  46.88%| unknown
  132s|     1 |     0 |450391 |     - |    47M |   0 |1085 |2703 |3412 | 866 | 14 |  45 |   0 | 9.871062e+05 | 1.441792e+06 |  46.06%| unknown
  132s|     1 |     0 |450392 |     - |    47M |   0 |1085 |2703 |3408 | 866 | 14 |  45 |   0 | 9.871070e+05 | 1.441792e+06 |  46.06%| unknown
  133s|     1 |     0 |453212 |     - |    48M |   0 |1085 |2703 |3345 | 917 | 15 |  45 |   0 | 9.915382e+05 | 1.441792e+06 |  45.41%| unknown
  133s|     1 |     0 |453213 |     - |    48M |   0 |1085 |2703 |3345 | 917 | 15 |  45 |   0 | 9.915390e+05 | 1.441792e+06 |  45.41%| unknown
  134s|     1 |     0 |457713 |     - |    48M |   0 |1085 |2703 |3379 | 951 | 16 |  45 |   0 | 9.951596e+05 | 1.441792e+06 |  44.88%| unknown
  134s|     1 |     0 |457714 |     - |    48M |   0 |1085 |2703 |3379 | 951 | 16 |  45 |   0 | 9.951600e+05 | 1.441792e+06 |  44.88%| unknown
  134s|     1 |     0 |460554 |     - |    48M |   0 |1085 |2703 |3425 | 997 | 17 |  45 |   0 | 9.956722e+05 | 1.441792e+06 |  44.81%| unknown
  134s|     1 |     0 |460555 |     - |    48M |   0 |1085 |2703 |3425 | 997 | 17 |  45 |   0 | 9.956730e+05 | 1.441792e+06 |  44.81%| unknown
  134s|     1 |     0 |462244 |     - |    49M |   0 |1085 |2703 |3359 |1033 | 18 |  45 |   0 | 9.990909e+05 | 1.441792e+06 |  44.31%| unknown
  134s|     1 |     0 |462245 |     - |    49M |   0 |1085 |2704 |3359 |1033 | 18 |  46 |   0 | 9.990910e+05 | 1.441792e+06 |  44.31%| unknown
  135s|     1 |     0 |464625 |     - |    49M |   0 |1085 |2704 |3391 |1065 | 19 |  46 |   0 | 1.001983e+06 | 1.441792e+06 |  43.89%| unknown
  135s|     1 |     0 |464626 |     - |    49M |   0 |1085 |2704 |3390 |1065 | 19 |  46 |   0 | 1.001983e+06 | 1.441792e+06 |  43.89%| unknown
  135s|     1 |     0 |467526 |     - |    49M |   0 |1085 |2704 |3420 |1095 | 20 |  46 |   0 | 1.004464e+06 | 1.441792e+06 |  43.54%| unknown
  135s|     1 |     0 |467527 |     - |    49M |   0 |1085 |2704 |3420 |1095 | 20 |  46 |   0 | 1.004464e+06 | 1.441792e+06 |  43.54%| unknown
 time | node  | left  |LP iter|LP it/n|mem/heur|mdpt |vars |cons |rows |cuts |sepa|confs|strbr|  dualbound   | primalbound  |  gap   | compl. 
  136s|     1 |     0 |469892 |     - |    49M |   0 |1085 |2704 |3365 |1142 | 21 |  46 |   0 | 1.006613e+06 | 1.441792e+06 |  43.23%| unknown
  136s|     1 |     0 |469893 |     - |    49M |   0 |1085 |2704 |3365 |1142 | 21 |  46 |   0 | 1.006613e+06 | 1.441792e+06 |  43.23%| unknown
  137s|     1 |     0 |472490 |     - |    49M |   0 |1085 |2704 |3390 |1167 | 22 |  46 |   0 | 1.008491e+06 | 1.441792e+06 |  42.97%| unknown
  137s|     1 |     0 |472491 |     - |    49M |   0 |1085 |2706 |3390 |1167 | 22 |  48 |   0 | 1.008492e+06 | 1.441792e+06 |  42.97%| unknown
  137s|     1 |     0 |475990 |     - |    49M |   0 |1085 |2706 |3410 |1187 | 23 |  48 |   0 | 1.010147e+06 | 1.441792e+06 |  42.73%| unknown
  137s|     1 |     0 |475991 |     - |    49M |   0 |1085 |2707 |3410 |1187 | 23 |  49 |   0 | 1.010147e+06 | 1.441792e+06 |  42.73%| unknown
  138s|     1 |     0 |478912 |     - |    49M |   0 |1085 |2707 |3385 |1225 | 24 |  49 |   0 | 1.011616e+06 | 1.441792e+06 |  42.52%| unknown
  138s|     1 |     0 |478913 |     - |    49M |   0 |1085 |2707 |3385 |1225 | 24 |  49 |   0 | 1.011617e+06 | 1.441792e+06 |  42.52%| unknown
  138s|     1 |     0 |481124 |     - |    49M |   0 |1085 |2707 |3418 |1258 | 25 |  49 |   0 | 1.012929e+06 | 1.441792e+06 |  42.34%| unknown
  138s|     1 |     0 |481125 |     - |    49M |   0 |1085 |2709 |3418 |1258 | 25 |  51 |   0 | 1.012929e+06 | 1.441792e+06 |  42.34%| unknown
  139s|     1 |     0 |482997 |     - |    49M |   0 |1085 |2709 |3437 |1277 | 26 |  51 |   0 | 1.014107e+06 | 1.441792e+06 |  42.17%| unknown
  139s|     1 |     0 |482998 |     - |    49M |   0 |1085 |2709 |3437 |1277 | 26 |  51 |   0 | 1.014107e+06 | 1.441792e+06 |  42.17%| unknown
  139s|     1 |     0 |486000 |     - |    49M |   0 |1085 |2709 |3393 |1304 | 27 |  51 |   0 | 1.015170e+06 | 1.441792e+06 |  42.02%| unknown
  139s|     1 |     0 |486001 |     - |    49M |   0 |1085 |2710 |3393 |1304 | 27 |  52 |   0 | 1.015170e+06 | 1.441792e+06 |  42.02%| unknown
  140s|     1 |     0 |489414 |     - |    49M |   0 |1085 |2710 |3415 |1326 | 28 |  52 |   0 | 1.016134e+06 | 1.441792e+06 |  41.89%| unknown
 time | node  | left  |LP iter|LP it/n|mem/heur|mdpt |vars |cons |rows |cuts |sepa|confs|strbr|  dualbound   | primalbound  |  gap   | compl. 
  140s|     1 |     0 |489415 |     - |    49M |   0 |1085 |2710 |3414 |1326 | 28 |  52 |   0 | 1.016135e+06 | 1.441792e+06 |  41.89%| unknown
  141s|     1 |     0 |493371 |     - |    49M |   0 |1085 |2710 |3457 |1369 | 29 |  52 |   0 | 1.017012e+06 | 1.441792e+06 |  41.77%| unknown
  141s|     1 |     0 |493372 |     - |    49M |   0 |1085 |2711 |3457 |1369 | 29 |  53 |   0 | 1.017013e+06 | 1.441792e+06 |  41.77%| unknown
  141s|     1 |     0 |495608 |     - |    49M |   0 |1085 |2711 |3426 |1398 | 30 |  53 |   0 | 1.017814e+06 | 1.441792e+06 |  41.66%| unknown
  141s|     1 |     0 |495609 |     - |    49M |   0 |1085 |2711 |3426 |1398 | 30 |  53 |   0 | 1.017815e+06 | 1.441792e+06 |  41.66%| unknown
  142s|     1 |     0 |498686 |     - |    49M |   0 |1085 |2711 |3443 |1415 | 31 |  53 |   0 | 1.018549e+06 | 1.441792e+06 |  41.55%| unknown
  142s|     1 |     0 |498687 |     - |    49M |   0 |1085 |2711 |3443 |1415 | 31 |  53 |   0 | 1.018550e+06 | 1.441792e+06 |  41.55%| unknown
  142s|     1 |     0 |500305 |     - |    49M |   0 |1085 |2711 |3467 |1439 | 32 |  53 |   0 | 1.019225e+06 | 1.441792e+06 |  41.46%| unknown
  142s|     1 |     0 |500306 |     - |    49M |   0 |1085 |2714 |3467 |1439 | 32 |  56 |   0 | 1.019226e+06 | 1.441792e+06 |  41.46%| unknown
  142s|     1 |     0 |502347 |     - |    49M |   0 |1085 |2714 |3409 |1455 | 33 |  56 |   0 | 1.019854e+06 | 1.441792e+06 |  41.37%| unknown
  143s|     1 |     0 |502348 |     - |    49M |   0 |1085 |2715 |3409 |1455 | 33 |  57 |   0 | 1.019854e+06 | 1.441792e+06 |  41.37%| unknown
  143s|     1 |     0 |504080 |     - |    49M |   0 |1085 |2715 |3440 |1486 | 34 |  57 |   0 | 1.020437e+06 | 1.441792e+06 |  41.29%| unknown
  143s|     1 |     0 |504081 |     - |    49M |   0 |1085 |2717 |3440 |1486 | 34 |  59 |   0 | 1.020437e+06 | 1.441792e+06 |  41.29%| unknown
  143s|     1 |     0 |505571 |     - |    49M |   0 |1085 |2717 |3454 |1500 | 35 |  59 |   0 | 1.020979e+06 | 1.441792e+06 |  41.22%| unknown
  143s|     1 |     0 |505572 |     - |    49M |   0 |1085 |2717 |3454 |1500 | 35 |  59 |   0 | 1.020979e+06 | 1.441792e+06 |  41.22%| unknown
 time | node  | left  |LP iter|LP it/n|mem/heur|mdpt |vars |cons |rows |cuts |sepa|confs|strbr|  dualbound   | primalbound  |  gap   | compl. 
  144s|     1 |     0 |507486 |     - |    49M |   0 |1085 |2717 |3417 |1520 | 36 |  59 |   0 | 1.021486e+06 | 1.441792e+06 |  41.15%| unknown
  144s|     1 |     0 |507487 |     - |    49M |   0 |1085 |2717 |3417 |1520 | 36 |  59 |   0 | 1.021487e+06 | 1.441792e+06 |  41.15%| unknown
  144s|     1 |     0 |510168 |     - |    49M |   0 |1085 |2717 |3432 |1535 | 37 |  59 |   0 | 1.021963e+06 | 1.441792e+06 |  41.08%| unknown
  144s|     1 |     0 |510169 |     - |    50M |   0 |1085 |2718 |3432 |1535 | 37 |  60 |   0 | 1.021963e+06 | 1.441792e+06 |  41.08%| unknown
  144s|     1 |     0 |511834 |     - |    50M |   0 |1085 |2718 |3458 |1561 | 38 |  60 |   0 | 1.022410e+06 | 1.441792e+06 |  41.02%| unknown
  144s|     1 |     0 |511835 |     - |    50M |   0 |1085 |2718 |3458 |1561 | 38 |  60 |   0 | 1.022410e+06 | 1.441792e+06 |  41.02%| unknown
  145s|     1 |     0 |513687 |     - |    50M |   0 |1085 |2718 |3416 |1579 | 39 |  60 |   0 | 1.022830e+06 | 1.441792e+06 |  40.96%| unknown
  145s|     1 |     0 |513688 |     - |    50M |   0 |1085 |2719 |3416 |1579 | 39 |  61 |   0 | 1.022831e+06 | 1.441792e+06 |  40.96%| unknown
  145s|     1 |     0 |516016 |     - |    50M |   0 |1085 |2719 |3434 |1597 | 40 |  61 |   0 | 1.023227e+06 | 1.441792e+06 |  40.91%| unknown
  145s|     1 |     0 |516017 |     - |    50M |   0 |1085 |2719 |3434 |1597 | 40 |  61 |   0 | 1.023227e+06 | 1.441792e+06 |  40.91%| unknown
  146s|     1 |     0 |518139 |     - |    50M |   0 |1085 |2719 |3458 |1621 | 41 |  61 |   0 | 1.023601e+06 | 1.441792e+06 |  40.85%| unknown
  146s|     1 |     0 |518140 |     - |    50M |   0 |1085 |2719 |3458 |1621 | 41 |  61 |   0 | 1.023601e+06 | 1.441792e+06 |  40.85%| unknown
  146s|     1 |     0 |519896 |     - |    50M |   0 |1085 |2719 |3433 |1634 | 42 |  61 |   0 | 1.023954e+06 | 1.441792e+06 |  40.81%| unknown
  146s|     1 |     0 |519897 |     - |    50M |   0 |1085 |2719 |3433 |1634 | 42 |  61 |   0 | 1.023955e+06 | 1.441792e+06 |  40.81%| unknown
  147s|     1 |     0 |522087 |     - |    50M |   0 |1085 |2719 |3448 |1649 | 43 |  61 |   0 | 1.024289e+06 | 1.441792e+06 |  40.76%| unknown
 time | node  | left  |LP iter|LP it/n|mem/heur|mdpt |vars |cons |rows |cuts |sepa|confs|strbr|  dualbound   | primalbound  |  gap   | compl. 
  147s|     1 |     0 |522089 |     - |    50M |   0 |1085 |2720 |3448 |1649 | 43 |  62 |   0 | 1.024289e+06 | 1.441792e+06 |  40.76%| unknown
  147s|     1 |     0 |523502 |     - |    50M |   0 |1085 |2720 |3460 |1661 | 44 |  62 |   0 | 1.024605e+06 | 1.441792e+06 |  40.72%| unknown
  147s|     1 |     0 |523503 |     - |    50M |   0 |1085 |2720 |3460 |1661 | 44 |  62 |   0 | 1.024606e+06 | 1.441792e+06 |  40.72%| unknown
  147s|     1 |     0 |525267 |     - |    50M |   0 |1085 |2720 |3425 |1675 | 45 |  62 |   0 | 1.024906e+06 | 1.441792e+06 |  40.68%| unknown
  147s|     1 |     0 |525268 |     - |    50M |   0 |1085 |2720 |3425 |1675 | 45 |  62 |   0 | 1.024906e+06 | 1.441792e+06 |  40.68%| unknown
  147s|     1 |     0 |526424 |     - |    50M |   0 |1085 |2720 |3436 |1686 | 46 |  62 |   0 | 1.025190e+06 | 1.441792e+06 |  40.64%| unknown
  148s|     1 |     0 |526425 |     - |    50M |   0 |1085 |2720 |3436 |1686 | 46 |  62 |   0 | 1.025191e+06 | 1.441792e+06 |  40.64%| unknown
  148s|     1 |     0 |528353 |     - |    50M |   0 |1085 |2720 |3458 |1708 | 47 |  62 |   0 | 1.025461e+06 | 1.441792e+06 |  40.60%| unknown
  148s|     1 |     0 |528354 |     - |    50M |   0 |1085 |2720 |3458 |1708 | 47 |  62 |   0 | 1.025461e+06 | 1.441792e+06 |  40.60%| unknown
  148s|     1 |     0 |530118 |     - |    50M |   0 |1085 |2720 |3447 |1727 | 48 |  62 |   0 | 1.025718e+06 | 1.441792e+06 |  40.56%| unknown
  148s|     1 |     0 |530119 |     - |    50M |   0 |1085 |2720 |3447 |1727 | 48 |  62 |   0 | 1.025718e+06 | 1.441792e+06 |  40.56%| unknown
  149s|     1 |     0 |531575 |     - |    50M |   0 |1085 |2720 |3468 |1748 | 49 |  62 |   0 | 1.025962e+06 | 1.441792e+06 |  40.53%| unknown
  149s|     1 |     0 |531576 |     - |    50M |   0 |1085 |2721 |3468 |1748 | 49 |  63 |   0 | 1.025963e+06 | 1.441792e+06 |  40.53%| unknown
  149s|     1 |     0 |533147 |     - |    50M |   0 |1085 |2721 |3492 |1772 | 50 |  63 |   0 | 1.026196e+06 | 1.441792e+06 |  40.50%| unknown
  149s|     1 |     0 |533148 |     - |    50M |   0 |1085 |2721 |3492 |1772 | 50 |  63 |   0 | 1.026196e+06 | 1.441792e+06 |  40.50%| unknown
 time | node  | left  |LP iter|LP it/n|mem/heur|mdpt |vars |cons |rows |cuts |sepa|confs|strbr|  dualbound   | primalbound  |  gap   | compl. 
  149s|     1 |     0 |534443 |     - |    50M |   0 |1085 |2721 |3461 |1790 | 51 |  63 |   0 | 1.026418e+06 | 1.441792e+06 |  40.47%| unknown
  149s|     1 |     0 |534444 |     - |    50M |   0 |1085 |2721 |3461 |1790 | 51 |  63 |   0 | 1.026418e+06 | 1.441792e+06 |  40.47%| unknown
  150s|     1 |     0 |537379 |     - |    50M |   0 |1085 |2721 |3469 |1798 | 52 |  63 |   0 | 1.026629e+06 | 1.441792e+06 |  40.44%| unknown
  150s|     1 |     0 |537380 |     - |    50M |   0 |1085 |2721 |3469 |1798 | 52 |  63 |   0 | 1.026630e+06 | 1.441792e+06 |  40.44%| unknown
  150s|     1 |     0 |539320 |     - |    50M |   0 |1085 |2721 |3483 |1812 | 53 |  63 |   0 | 1.026832e+06 | 1.441792e+06 |  40.41%| unknown
  150s|     1 |     0 |539321 |     - |    50M |   0 |1085 |2721 |3483 |1812 | 53 |  63 |   0 | 1.026832e+06 | 1.441792e+06 |  40.41%| unknown
  150s|     1 |     0 |539635 |     - |    50M |   0 |1085 |2721 |3457 |1822 | 54 |  63 |   0 | 1.026832e+06 | 1.441792e+06 |  40.41%| unknown
  151s|     1 |     0 |540922 |     - |    50M |   0 |1085 |2722 |3464 |1829 | 55 |  64 |   0 | 1.027025e+06 | 1.441792e+06 |  40.39%| unknown
  151s|     1 |     0 |540923 |     - |    50M |   0 |1085 |2723 |3464 |1829 | 55 |  65 |   0 | 1.027025e+06 | 1.441792e+06 |  40.39%| unknown
  151s|     1 |     0 |543670 |     - |    50M |   0 |1085 |2723 |3475 |1840 | 56 |  65 |   0 | 1.027209e+06 | 1.441792e+06 |  40.36%| unknown
  151s|     1 |     0 |543671 |     - |    50M |   0 |1085 |2725 |3475 |1840 | 56 |  67 |   0 | 1.027210e+06 | 1.441792e+06 |  40.36%| unknown
  152s|     1 |     0 |545492 |     - |    50M |   0 |1085 |2725 |3493 |1858 | 57 |  67 |   0 | 1.027386e+06 | 1.441792e+06 |  40.34%| unknown
  152s|     1 |     0 |545493 |     - |    50M |   0 |1085 |2725 |3478 |1858 | 57 |  67 |   0 | 1.027387e+06 | 1.441792e+06 |  40.34%| unknown
  152s|     1 |     0 |548080 |     - |    50M |   0 |1085 |2725 |3505 |1885 | 58 |  67 |   0 | 1.027556e+06 | 1.441792e+06 |  40.31%| unknown
  152s|     1 |     0 |548081 |     - |    50M |   0 |1085 |2725 |3505 |1885 | 58 |  67 |   0 | 1.027556e+06 | 1.441792e+06 |  40.31%| unknown
 time | node  | left  |LP iter|LP it/n|mem/heur|mdpt |vars |cons |rows |cuts |sepa|confs|strbr|  dualbound   | primalbound  |  gap   | compl. 
  153s|     1 |     0 |550378 |     - |    50M |   0 |1085 |2725 |3538 |1918 | 59 |  67 |   0 | 1.027717e+06 | 1.441792e+06 |  40.29%| unknown
  153s|     1 |     0 |550379 |     - |    50M |   0 |1085 |2725 |3538 |1918 | 59 |  67 |   0 | 1.027718e+06 | 1.441792e+06 |  40.29%| unknown
  153s|     1 |     0 |551887 |     - |    50M |   0 |1085 |2725 |3556 |1936 | 60 |  67 |   0 | 1.027873e+06 | 1.441792e+06 |  40.27%| unknown
  153s|     1 |     0 |551888 |     - |    50M |   0 |1085 |2725 |3517 |1936 | 60 |  67 |   0 | 1.027873e+06 | 1.441792e+06 |  40.27%| unknown
  153s|     1 |     0 |553427 |     - |    50M |   0 |1085 |2725 |3531 |1950 | 61 |  67 |   0 | 1.028021e+06 | 1.441792e+06 |  40.25%| unknown
  153s|     1 |     0 |553428 |     - |    50M |   0 |1085 |2725 |3531 |1950 | 61 |  67 |   0 | 1.028022e+06 | 1.441792e+06 |  40.25%| unknown
  154s|     1 |     0 |555031 |     - |    50M |   0 |1085 |2725 |3548 |1967 | 62 |  67 |   0 | 1.028164e+06 | 1.441792e+06 |  40.23%| unknown
  154s|     1 |     0 |555032 |     - |    50M |   0 |1085 |2725 |3548 |1967 | 62 |  67 |   0 | 1.028165e+06 | 1.441792e+06 |  40.23%| unknown
  154s|     1 |     0 |557065 |     - |    50M |   0 |1085 |2725 |3558 |1977 | 63 |  67 |   0 | 1.028301e+06 | 1.441792e+06 |  40.21%| unknown
  154s|     1 |     0 |557066 |     - |    50M |   0 |1085 |2726 |3491 |1977 | 63 |  68 |   0 | 1.028302e+06 | 1.441792e+06 |  40.21%| unknown
  155s|     1 |     0 |558463 |     - |    50M |   0 |1085 |2726 |3505 |1991 | 64 |  68 |   0 | 1.028433e+06 | 1.441792e+06 |  40.19%| unknown
  155s|     1 |     0 |558464 |     - |    50M |   0 |1085 |2726 |3505 |1991 | 64 |  68 |   0 | 1.028433e+06 | 1.441792e+06 |  40.19%| unknown
  155s|     1 |     0 |562266 |     - |    50M |   0 |1085 |2726 |3518 |2004 | 65 |  68 |   0 | 1.028559e+06 | 1.441792e+06 |  40.18%| unknown
  155s|     1 |     0 |562267 |     - |    51M |   0 |1085 |2727 |3518 |2004 | 65 |  69 |   0 | 1.028559e+06 | 1.441792e+06 |  40.18%| unknown
  156s|     1 |     0 |564441 |     - |    51M |   0 |1085 |2727 |3523 |2009 | 66 |  69 |   0 | 1.028680e+06 | 1.441792e+06 |  40.16%| unknown
 time | node  | left  |LP iter|LP it/n|mem/heur|mdpt |vars |cons |rows |cuts |sepa|confs|strbr|  dualbound   | primalbound  |  gap   | compl. 
  156s|     1 |     0 |564442 |     - |    51M |   0 |1085 |2729 |3493 |2009 | 66 |  71 |   0 | 1.028680e+06 | 1.441792e+06 |  40.16%| unknown
  157s|     1 |     0 |567605 |     - |    51M |   0 |1085 |2729 |3504 |2020 | 67 |  71 |   0 | 1.028796e+06 | 1.441792e+06 |  40.14%| unknown
  157s|     1 |     0 |567606 |     - |    51M |   0 |1085 |2730 |3504 |2020 | 67 |  72 |   0 | 1.028797e+06 | 1.441792e+06 |  40.14%| unknown
  157s|     1 |     0 |569318 |     - |    51M |   0 |1085 |2730 |3515 |2031 | 68 |  72 |   0 | 1.028909e+06 | 1.441792e+06 |  40.13%| unknown
  157s|     1 |     0 |569319 |     - |    51M |   0 |1085 |2731 |3515 |2031 | 68 |  73 |   0 | 1.028909e+06 | 1.441792e+06 |  40.13%| unknown
  157s|     1 |     0 |571212 |     - |    51M |   0 |1085 |2731 |3526 |2042 | 69 |  73 |   0 | 1.029016e+06 | 1.441792e+06 |  40.11%| unknown
  157s|     1 |     0 |571213 |     - |    51M |   0 |1085 |2731 |3504 |2042 | 69 |  73 |   0 | 1.029017e+06 | 1.441792e+06 |  40.11%| unknown
  158s|     1 |     0 |574414 |     - |    51M |   0 |1085 |2731 |3531 |2069 | 70 |  73 |   0 | 1.029120e+06 | 1.441792e+06 |  40.10%| unknown
  158s|     1 |     0 |574415 |     - |    51M |   0 |1085 |2731 |3531 |2069 | 70 |  73 |   0 | 1.029121e+06 | 1.441792e+06 |  40.10%| unknown
  158s|     1 |     0 |576742 |     - |    51M |   0 |1085 |2731 |3570 |2108 | 71 |  73 |   0 | 1.029220e+06 | 1.441792e+06 |  40.09%| unknown
  158s|     1 |     0 |576745 |     - |    51M |   0 |1085 |2731 |3570 |2108 | 71 |  73 |   0 | 1.029221e+06 | 1.441792e+06 |  40.09%| unknown
  159s|     1 |     0 |578371 |     - |    51M |   0 |1085 |2731 |3588 |2126 | 72 |  73 |   0 | 1.029317e+06 | 1.441792e+06 |  40.07%| unknown
  159s|     1 |     0 |578372 |     - |    51M |   0 |1085 |2731 |3570 |2126 | 72 |  73 |   0 | 1.029317e+06 | 1.441792e+06 |  40.07%| unknown
  159s|     1 |     0 |579998 |     - |    51M |   0 |1085 |2731 |3587 |2143 | 73 |  73 |   0 | 1.029409e+06 | 1.441792e+06 |  40.06%| unknown
  159s|     1 |     0 |579999 |     - |    51M |   0 |1085 |2731 |3587 |2143 | 73 |  73 |   0 | 1.029410e+06 | 1.441792e+06 |  40.06%| unknown
 time | node  | left  |LP iter|LP it/n|mem/heur|mdpt |vars |cons |rows |cuts |sepa|confs|strbr|  dualbound   | primalbound  |  gap   | compl. 
  160s|     1 |     0 |582230 |     - |    51M |   0 |1085 |2731 |3605 |2161 | 74 |  73 |   0 | 1.029499e+06 | 1.441792e+06 |  40.05%| unknown
  160s|     1 |     0 |582231 |     - |    51M |   0 |1085 |2731 |3605 |2161 | 74 |  73 |   0 | 1.029499e+06 | 1.441792e+06 |  40.05%| unknown
  160s|     1 |     0 |583365 |     - |    51M |   0 |1085 |2731 |3616 |2172 | 75 |  73 |   0 | 1.029585e+06 | 1.441792e+06 |  40.04%| unknown
  160s|     1 |     0 |583366 |     - |    51M |   0 |1085 |2731 |3545 |2172 | 75 |  73 |   0 | 1.029585e+06 | 1.441792e+06 |  40.04%| unknown
  160s|     1 |     0 |584453 |     - |    51M |   0 |1085 |2731 |3555 |2182 | 76 |  73 |   0 | 1.029668e+06 | 1.441792e+06 |  40.02%| unknown
  160s|     1 |     0 |584454 |     - |    51M |   0 |1085 |2731 |3555 |2182 | 76 |  73 |   0 | 1.029668e+06 | 1.441792e+06 |  40.02%| unknown
  160s|     1 |     0 |585565 |     - |    51M |   0 |1085 |2731 |3562 |2189 | 77 |  73 |   0 | 1.029748e+06 | 1.441792e+06 |  40.01%| unknown
  160s|     1 |     0 |585566 |     - |    51M |   0 |1085 |2731 |3562 |2189 | 77 |  73 |   0 | 1.029748e+06 | 1.441792e+06 |  40.01%| unknown
  161s|     1 |     0 |586734 |     - |    51M |   0 |1085 |2731 |3576 |2203 | 78 |  73 |   0 | 1.029825e+06 | 1.441792e+06 |  40.00%| unknown
  161s|     1 |     0 |586735 |     - |    51M |   0 |1085 |2731 |3555 |2203 | 78 |  73 |   0 | 1.029825e+06 | 1.441792e+06 |  40.00%| unknown
  161s|     1 |     0 |587941 |     - |    51M |   0 |1085 |2731 |3569 |2217 | 79 |  73 |   0 | 1.029899e+06 | 1.441792e+06 |  39.99%| unknown
  161s|     1 |     0 |587942 |     - |    51M |   0 |1085 |2731 |3569 |2217 | 79 |  73 |   0 | 1.029900e+06 | 1.441792e+06 |  39.99%| unknown
  161s|     1 |     0 |589277 |     - |    51M |   0 |1085 |2731 |3582 |2230 | 80 |  73 |   0 | 1.029972e+06 | 1.441792e+06 |  39.98%| unknown
  161s|     1 |     0 |589279 |     - |    51M |   0 |1085 |2730 |3582 |2230 | 80 |  73 |   0 | 1.029972e+06 | 1.441792e+06 |  39.98%| unknown
  167s|     1 |     2 |604664 |     - |    52M |   0 |1085 |2735 |3582 |2230 | 80 |  79 |  11 | 1.029972e+06 | 1.441792e+06 |  39.98%| unknown
 time | node  | left  |LP iter|LP it/n|mem/heur|mdpt |vars |cons |rows |cuts |sepa|confs|strbr|  dualbound   | primalbound  |  gap   | compl. 
* 172s|    11 |     8 |623150 |3387.2 |    LP  |   5 |1085 |2735 |3135 |2378 |  0 |  85 |  30 | 1.029972e+06 | 1.359872e+06 |  32.03%|   1.15%
d 173s|    11 |    10 |626055 |3677.7 |pscostdi|   5 |1085 |2736 |3165 |   0 |  2 |  86 |  30 | 1.029972e+06 | 1.310720e+06 |  27.26%|   1.15%
